TYPE : TSP
DIMENSION: 29
EDGE_DATA_FORMAT: EDGE_LIST
EDGE_WEIGHT_TYPE: EXPLICIT
EDGE_WEIGHT_FORMAT: FULL_MATRIX 
EDGE_DATA_SECTION
0 1
0 2
0 3
0 4
0 5
0 6
0 7
0 8
0 9
0 10
0 11
0 12
0 13
0 14
1 0
1 3
1 4
1 5
1 11
1 12
1 13
1 15
1 16
1 17
1 18
1 19
1 20
1 21
2 0
2 3
2 6
2 7
2 9
2 12
2 14
2 16
2 17
2 19
2 21
2 22
2 23
2 26
3 0
3 1
3 2
3 4
3 6
3 13
3 14
3 17
3 18
3 20
3 23
3 25
3 26
3 27
4 0
4 1
4 3
4 5
4 7
4 10
4 14
4 15
4 17
4 21
4 23
4 24
4 27
4 28
5 0
5 1
5 4
5 7
5 8
5 9
5 11
5 15
5 16
5 18
5 22
5 23
5 26
5 27
6 0
6 2
6 3
6 7
6 8
6 10
6 13
6 15
6 16
6 17
6 18
6 22
6 24
6 25
7 0
7 2
7 4
7 5
7 6
7 9
7 10
7 16
7 18
7 19
7 21
7 25
7 27
7 28
8 0
8 5
8 6
8 9
8 10
8 11
8 13
8 17
8 19
8 20
8 22
8 23
8 24
8 27
9 0
9 2
9 5
9 7
9 8
9 12
9 13
9 18
9 20
9 21
9 23
9 24
9 26
9 28
10 0
10 4
10 6
10 7
10 8
10 11
10 14
10 15
10 19
10 20
10 21
10 24
10 25
10 26
11 0
11 1
11 5
11 8
11 10
11 12
11 14
11 17
11 18
11 19
11 22
11 25
11 26
11 28
12 0
12 1
12 2
12 9
12 11
12 13
12 14
12 15
12 16
12 19
12 23
12 24
12 25
12 28
13 0
13 1
13 3
13 6
13 8
13 9
13 12
13 15
13 20
13 21
13 22
13 25
13 27
13 28
14 0
14 2
14 3
14 4
14 10
14 11
14 12
14 16
14 20
14 22
14 24
14 26
14 27
14 28
15 1
15 4
15 5
15 6
15 10
15 12
15 13
15 16
15 21
15 22
15 23
15 24
15 25
15 26
16 1
16 2
16 5
16 6
16 7
16 12
16 14
16 15
16 18
16 19
16 20
16 22
16 24
16 27
17 1
17 2
17 3
17 4
17 6
17 8
17 11
17 18
17 19
17 21
17 22
17 23
17 24
17 28
18 1
18 3
18 5
18 6
18 7
18 9
18 11
18 16
18 17
18 20
18 24
18 25
18 26
18 28
19 1
19 2
19 7
19 8
19 10
19 11
19 12
19 16
19 17
19 20
19 21
19 23
19 25
19 27
20 1
20 3
20 8
20 9
20 10
20 13
20 14
20 16
20 18
20 19
20 21
20 24
20 26
20 27
21 1
21 2
21 4
21 7
21 9
21 10
21 13
21 15
21 17
21 19
21 20
21 22
21 26
21 28
22 2
22 5
22 6
22 8
22 11
22 13
22 14
22 15
22 16
22 17
22 21
22 26
22 27
22 28
23 2
23 3
23 4
23 5
23 8
23 9
23 12
23 15
23 17
23 19
23 24
23 25
23 26
23 27
24 4
24 6
24 8
24 9
24 10
24 12
24 14
24 15
24 16
24 17
24 18
24 20
24 23
24 28
25 3
25 6
25 7
25 10
25 11
25 12
25 13
25 15
25 18
25 19
25 23
25 26
25 27
25 28
26 2
26 3
26 5
26 9
26 10
26 11
26 14
26 15
26 18
26 20
26 21
26 22
26 23
26 25
27 3
27 4
27 5
27 7
27 8
27 13
27 14
27 16
27 19
27 20
27 22
27 23
27 25
27 28
28 4
28 7
28 9
28 11
28 12
28 13
28 14
28 17
28 18
28 21
28 22
28 24
28 25
28 27
-1
EDGE_WEIGHT_SECTION
0.0	1.0	1.0	1.0	1.0	1.0	1.0	1.0	1.0	1.0	1.0	1.0	1.0	1.0	1.0	0.0	0.0	0.0	0.0	0.0	0.0	0.0	0.0	0.0	0.0	0.0	0.0	0.0	0.0
1.0	0.0	0.0	1.0	1.0	1.0	0.0	0.0	0.0	0.0	0.0	1.0	1.0	1.0	0.0	1.0	1.0	1.0	1.0	1.0	1.0	1.0	0.0	0.0	0.0	0.0	0.0	0.0	0.0
1.0	0.0	0.0	1.0	0.0	0.0	1.0	1.0	0.0	1.0	0.0	0.0	1.0	0.0	1.0	0.0	1.0	1.0	0.0	1.0	0.0	1.0	1.0	1.0	0.0	0.0	1.0	0.0	0.0
1.0	1.0	1.0	0.0	1.0	0.0	1.0	0.0	0.0	0.0	0.0	0.0	0.0	1.0	1.0	0.0	0.0	1.0	1.0	0.0	1.0	0.0	0.0	1.0	0.0	1.0	1.0	1.0	0.0
1.0	1.0	0.0	1.0	0.0	1.0	0.0	1.0	0.0	0.0	1.0	0.0	0.0	0.0	1.0	1.0	0.0	1.0	0.0	0.0	0.0	1.0	0.0	1.0	1.0	0.0	0.0	1.0	1.0
1.0	1.0	0.0	0.0	1.0	0.0	0.0	1.0	1.0	1.0	0.0	1.0	0.0	0.0	0.0	1.0	1.0	0.0	1.0	0.0	0.0	0.0	1.0	1.0	0.0	0.0	1.0	1.0	0.0
1.0	0.0	1.0	1.0	0.0	0.0	0.0	1.0	1.0	0.0	1.0	0.0	0.0	1.0	0.0	1.0	1.0	1.0	1.0	0.0	0.0	0.0	1.0	0.0	1.0	1.0	0.0	0.0	0.0
1.0	0.0	1.0	0.0	1.0	1.0	1.0	0.0	0.0	1.0	1.0	0.0	0.0	0.0	0.0	0.0	1.0	0.0	1.0	1.0	0.0	1.0	0.0	0.0	0.0	1.0	0.0	1.0	1.0
1.0	0.0	0.0	0.0	0.0	1.0	1.0	0.0	0.0	1.0	1.0	1.0	0.0	1.0	0.0	0.0	0.0	1.0	0.0	1.0	1.0	0.0	1.0	1.0	1.0	0.0	0.0	1.0	0.0
1.0	0.0	1.0	0.0	0.0	1.0	0.0	1.0	1.0	0.0	0.0	0.0	1.0	1.0	0.0	0.0	0.0	0.0	1.0	0.0	1.0	1.0	0.0	1.0	1.0	0.0	1.0	0.0	1.0
1.0	0.0	0.0	0.0	1.0	0.0	1.0	1.0	1.0	0.0	0.0	1.0	0.0	0.0	1.0	1.0	0.0	0.0	0.0	1.0	1.0	1.0	0.0	0.0	1.0	1.0	1.0	0.0	0.0
1.0	1.0	0.0	0.0	0.0	1.0	0.0	0.0	1.0	0.0	1.0	0.0	1.0	0.0	1.0	0.0	0.0	1.0	1.0	1.0	0.0	0.0	1.0	0.0	0.0	1.0	1.0	0.0	1.0
1.0	1.0	1.0	0.0	0.0	0.0	0.0	0.0	0.0	1.0	0.0	1.0	0.0	1.0	1.0	1.0	1.0	0.0	0.0	1.0	0.0	0.0	0.0	1.0	1.0	1.0	0.0	0.0	1.0
1.0	1.0	0.0	1.0	0.0	0.0	1.0	0.0	1.0	1.0	0.0	0.0	1.0	0.0	0.0	1.0	0.0	0.0	0.0	0.0	1.0	1.0	1.0	0.0	0.0	1.0	0.0	1.0	1.0
1.0	0.0	1.0	1.0	1.0	0.0	0.0	0.0	0.0	0.0	1.0	1.0	1.0	0.0	0.0	0.0	1.0	0.0	0.0	0.0	1.0	0.0	1.0	0.0	1.0	0.0	1.0	1.0	1.0
0.0	1.0	0.0	0.0	1.0	1.0	1.0	0.0	0.0	0.0	1.0	0.0	1.0	1.0	0.0	0.0	1.0	0.0	0.0	0.0	0.0	1.0	1.0	1.0	1.0	1.0	1.0	0.0	0.0
0.0	1.0	1.0	0.0	0.0	1.0	1.0	1.0	0.0	0.0	0.0	0.0	1.0	0.0	1.0	1.0	0.0	0.0	1.0	1.0	1.0	0.0	1.0	0.0	1.0	0.0	0.0	1.0	0.0
0.0	1.0	1.0	1.0	1.0	0.0	1.0	0.0	1.0	0.0	0.0	1.0	0.0	0.0	0.0	0.0	0.0	0.0	1.0	1.0	0.0	1.0	1.0	1.0	1.0	0.0	0.0	0.0	1.0
0.0	1.0	0.0	1.0	0.0	1.0	1.0	1.0	0.0	1.0	0.0	1.0	0.0	0.0	0.0	0.0	1.0	1.0	0.0	0.0	1.0	0.0	0.0	0.0	1.0	1.0	1.0	0.0	1.0
0.0	1.0	1.0	0.0	0.0	0.0	0.0	1.0	1.0	0.0	1.0	1.0	1.0	0.0	0.0	0.0	1.0	1.0	0.0	0.0	1.0	1.0	0.0	1.0	0.0	1.0	0.0	1.0	0.0
0.0	1.0	0.0	1.0	0.0	0.0	0.0	0.0	1.0	1.0	1.0	0.0	0.0	1.0	1.0	0.0	1.0	0.0	1.0	1.0	0.0	1.0	0.0	0.0	1.0	0.0	1.0	1.0	0.0
0.0	1.0	1.0	0.0	1.0	0.0	0.0	1.0	0.0	1.0	1.0	0.0	0.0	1.0	0.0	1.0	0.0	1.0	0.0	1.0	1.0	0.0	1.0	0.0	0.0	0.0	1.0	0.0	1.0
0.0	0.0	1.0	0.0	0.0	1.0	1.0	0.0	1.0	0.0	0.0	1.0	0.0	1.0	1.0	1.0	1.0	1.0	0.0	0.0	0.0	1.0	0.0	0.0	0.0	0.0	1.0	1.0	1.0
0.0	0.0	1.0	1.0	1.0	1.0	0.0	0.0	1.0	1.0	0.0	0.0	1.0	0.0	0.0	1.0	0.0	1.0	0.0	1.0	0.0	0.0	0.0	0.0	1.0	1.0	1.0	1.0	0.0
0.0	0.0	0.0	0.0	1.0	0.0	1.0	0.0	1.0	1.0	1.0	0.0	1.0	0.0	1.0	1.0	1.0	1.0	1.0	0.0	1.0	0.0	0.0	1.0	0.0	0.0	0.0	0.0	1.0
0.0	0.0	0.0	1.0	0.0	0.0	1.0	1.0	0.0	0.0	1.0	1.0	1.0	1.0	0.0	1.0	0.0	0.0	1.0	1.0	0.0	0.0	0.0	1.0	0.0	0.0	1.0	1.0	1.0
0.0	0.0	1.0	1.0	0.0	1.0	0.0	0.0	0.0	1.0	1.0	1.0	0.0	0.0	1.0	1.0	0.0	0.0	1.0	0.0	1.0	1.0	1.0	1.0	0.0	1.0	0.0	0.0	0.0
0.0	0.0	0.0	1.0	1.0	1.0	0.0	1.0	1.0	0.0	0.0	0.0	0.0	1.0	1.0	0.0	1.0	0.0	0.0	1.0	1.0	0.0	1.0	1.0	0.0	1.0	0.0	0.0	1.0
0.0	0.0	0.0	0.0	1.0	0.0	0.0	1.0	0.0	1.0	0.0	1.0	1.0	1.0	1.0	0.0	0.0	1.0	1.0	0.0	0.0	1.0	1.0	0.0	1.0	1.0	0.0	1.0	0.0
DIFF_EDGE
0 0
CHROM_NUMBER
8
EOF
